n_res = 4;
rc = [ 14, 14, 13, 12 ];
n_tasks = 30;
d = [ 5, 4, 9, 8, 9, 6, 4, 6, 6, 10, 10, 2, 8, 7, 6, 10, 1, 6, 2, 7, 8, 4, 6, 2, 2, 7, 5, 6, 2, 1 ];
rr = [| 14, 14, 14, 14, 14, 14, 14, 14, 14, 14, 14, 14, 14, 14, 14, 14, 14, 14, 14, 14, 14, 14, 14, 14, 14, 14, 14, 14, 14, 14
      | 14, 14, 14, 14, 14, 14, 14, 14, 14, 14, 14, 14, 14, 14, 14, 14, 14, 14, 14, 14, 14, 14, 14, 14, 14, 14, 14, 14, 14, 14
      | 13, 13, 13, 13, 13, 13, 13, 13, 13, 13, 13, 13, 13, 13, 13, 13, 13, 13, 13, 13, 13, 13, 13, 13, 13, 13, 13, 13, 13, 13
      | 12, 12, 12, 12, 12, 12, 12, 12, 12, 12, 12, 12, 12, 12, 12, 12, 12, 12, 12, 12, 12, 12, 12, 12, 12, 12, 12, 12, 12, 12|];
suc = [ { 6, 10, 15 },
       { 4, 11, 16 },
       { 5, 9, 12 },
       { 22 },
       { 7, 18, 25 },
       { 8, 12, 18 },
       { 13, 19, 27 },
       { 11, 16, 21 },
       { 10, 11, 18 },
       { 14, 17, 19 },
       { 13, 19 },
       { 16, 17, 27 },
       { 23, 30 },
       { 20, 21 },
       { 17, 20 },
       { 20, 22, 26 },
       { 25 },
       { 21, 23, 26 },
       { 24, 26, 29 },
       { 23, 24, 25 },
       { 22, 27 },
       { 24, 29, 30 },
       { 29 },
       { 28 },
       { 28 },
       { 30 },
       { 28 },
       {  },
       {  },
       {  } ];
